Normalized Data/p02_14_normalized_splitx10_0.vrp
NAME:p02_14_NORMALIZED_splitx10_
BEST_KNOWN: 0
COMMENT: 0
DIMENSION: 258
CAPACITY: 1000
EDGE_WEIGHT_FORMAT: FUNCTION
EDGE_WEIGHT_TYPE: EXACT_2D
NODE_COORD_SECTION
1 0.00000 0.00000
2 -23 -21
3 -23 -21
4 -23 -21
5 -31 -37
6 -22 -45
7 -22 -45
8 18 22
9 18 22
10 18 22
11 18 22
12 18 22
13 26 -45
14 26 -45
15 15 -8
16 15 -8
17 15 -8
18 15 -8
19 15 -8
20 19 33
21 19 33
22 19 33
23 19 33
24 19 33
25 19 33
26 33 16
27 33 16
28 11 19
29 11 19
30 11 19
31 11 19
32 11 19
33 6 25
34 6 25
35 6 25
36 6 25
37 6 25
38 6 25
39 6 25
40 5 32
41 5 32
42 5 32
43 27 5
44 27 5
45 27 5
46 -10 8
47 -10 8
48 -10 8
49 48 -28
50 48 -28
51 48 -28
52 48 -28
53 48 -28
54 16 -32
55 16 -32
56 16 -32
57 16 -32
58 16 -32
59 16 -32
60 1 -48
61 1 -48
62 1 -48
63 1 -48
64 -47 -7
65 -47 -7
66 -47 -7
67 -47 -7
68 -23 -13
69 -23 -13
70 -4 25
71 -4 25
72 -4 25
73 -4 25
74 42 35
75 -9 -33
76 -9 -33
77 -9 -33
78 49 26
79 49 26
80 49 26
81 22 24
82 22 24
83 22 24
84 22 24
85 -16 23
86 -16 23
87 30 49
88 30 49
89 30 49
90 30 49
91 30 49
92 -14 29
93 -14 29
94 -14 29
95 8 -28
96 8 -28
97 8 -28
98 -43 -10
99 -43 -10
100 -43 -10
101 -43 -10
102 -37 24
103 -37 24
104 43 38
105 43 38
106 43 38
107 43 38
108 13 -24
109 13 -24
110 13 -24
111 13 -24
112 -46 -37
113 -46 -37
114 -46 -37
115 -46 -37
116 -46 -37
117 -39 45
118 -39 45
119 -39 45
120 -39 45
121 -39 45
122 34 5
123 34 5
124 34 5
125 34 5
126 23 -4
127 23 -4
128 23 -4
129 21 -19
130 21 -19
131 21 -19
132 -36 31
133 -36 31
134 -36 31
135 -12 -39
136 -12 -39
137 22 -19
138 22 -19
139 22 -19
140 22 -19
141 34 -6
142 34 -6
143 34 -6
144 34 -6
145 -11 35
146 -11 35
147 -11 35
148 -11 35
149 -3 34
150 -3 34
151 40 47
152 40 47
153 40 47
154 40 47
155 27 -32
156 27 -32
157 -21 -25
158 -21 -25
159 -21 -25
160 -13 -22
161 -13 -22
162 -19 8
163 -19 8
164 -19 8
165 -23 30
166 -23 30
167 5 3
168 9 -18
169 9 -18
170 9 -18
171 9 -18
172 9 -18
173 9 -18
174 44 48
175 44 48
176 44 48
177 45 17
178 45 17
179 45 17
180 -45 23
181 -45 23
182 -45 23
183 -45 23
184 -7 -35
185 -7 -35
186 -7 -35
187 -7 -35
188 -5 -42
189 -5 -42
190 -5 -42
191 -5 -42
192 29 31
193 29 31
194 29 31
195 29 31
196 43 -37
197 43 -37
198 43 -37
199 33 15
200 33 15
201 33 15
202 29 15
203 29 15
204 29 15
205 29 15
206 2 28
207 2 28
208 2 28
209 2 28
210 -9 45
211 8 40
212 8 40
213 -43 20
214 -43 20
215 32 -40
216 32 -40
217 32 -40
218 32 -40
219 -3 11
220 -3 11
221 -3 11
222 -3 11
223 -3 11
224 13 -33
225 9 43
226 9 43
227 42 25
228 42 25
229 -42 -8
230 -42 -8
231 -42 -8
232 -42 -8
233 -42 -8
234 9 -33
235 9 -33
236 9 -33
237 -25 44
238 42 -7
239 42 -7
240 42 -7
241 42 -7
242 42 -7
243 42 -7
244 -19 20
245 -19 20
246 -19 20
247 -19 20
248 -19 20
249 -39 -7
250 -39 -7
251 -39 -7
252 -39 -7
253 -39 -7
254 -39 -7
255 42 24
256 42 24
257 42 24
258 42 24
DEMAND_SECTION
1 0
2 200
3 10
4 10
5 200
6 200
7 10
8 200
9 100
10 50
11 10
12 10
13 100
14 50
15 200
16 100
17 50
18 10
19 10
20 200
21 100
22 50
23 10
24 10
25 10
26 200
27 50
28 200
29 200
30 10
31 10
32 10
33 200
34 200
35 50
36 10
37 10
38 10
39 10
40 200
41 100
42 10
43 200
44 100
45 50
46 100
47 10
48 10
49 100
50 50
51 10
52 10
53 10
54 200
55 100
56 10
57 10
58 10
59 10
60 200
61 200
62 50
63 10
64 100
65 10
66 10
67 10
68 200
69 200
70 200
71 200
72 10
73 10
74 200
75 200
76 200
77 10
78 200
79 10
80 10
81 200
82 200
83 10
84 10
85 100
86 50
87 200
88 50
89 10
90 10
91 10
92 200
93 100
94 10
95 200
96 200
97 10
98 200
99 200
100 10
101 10
102 200
103 50
104 100
105 50
106 10
107 10
108 200
109 50
110 10
111 10
112 200
113 10
114 10
115 10
116 10
117 100
118 50
119 10
120 10
121 10
122 200
123 200
124 10
125 10
126 200
127 10
128 10
129 100
130 10
131 10
132 200
133 100
134 50
135 200
136 100
137 200
138 200
139 10
140 10
141 200
142 200
143 10
144 10
145 200
146 200
147 10
148 10
149 200
150 50
151 200
152 200
153 10
154 10
155 100
156 50
157 200
158 200
159 10
160 100
161 50
162 200
163 200
164 50
165 200
166 200
167 200
168 200
169 200
170 50
171 10
172 10
173 10
174 200
175 200
176 50
177 100
178 10
179 10
180 200
181 100
182 10
183 10
184 100
185 10
186 10
187 10
188 100
189 50
190 10
191 10
192 200
193 200
194 10
195 10
196 200
197 200
198 100
199 200
200 10
201 10
202 200
203 100
204 10
205 10
206 200
207 100
208 10
209 10
210 200
211 200
212 50
213 100
214 50
215 200
216 100
217 10
218 10
219 100
220 50
221 10
222 10
223 10
224 200
225 200
226 200
227 200
228 100
229 200
230 200
231 50
232 10
233 10
234 200
235 200
236 50
237 200
238 200
239 100
240 10
241 10
242 10
243 10
244 200
245 200
246 50
247 10
248 10
249 200
250 100
251 10
252 10
253 10
254 10
255 100
256 50
257 10
258 10
DEPOT_SECTION
1
-1
EOF