Normalized Data/p02_14_normalized_splitx10_0.sol
257 -3 1 2 115 111 114 112 113 4 5 6 159 -7 81 82 80 83 19 21 20 22 -9 10 8 11 257 254 256 255 227 226 79 78 77 178 176 177 -17 18 14 15 16 122 123 124 121 42 -24 23 88 87 90 86 89 152 153 150 174 173 175 -30 31 27 28 29 32 35 37 33 34 36 38 -39 40 41 211 210 224 225 -44 43 198 199 200 26 25 201 202 204 203 -45 70 69 72 205 207 206 208 219 218 222 220 -46 47 102 101 182 181 180 179 212 213 162 163 -48 50 51 52 49 196 195 197 215 217 216 214 -68 67 229 230 252 250 249 248 251 253 -73 104 106 105 103 151 194 191 192 193 -85 84 164 165 243 244 246 247 -93 91 92 145 144 148 149 71 221 -95 94 234 233 223 -96 235 61 60 59 62 190 189 187 188 134 135 -99 97 98 100 63 66 64 65 231 232 228 161 -126 127 125 140 142 141 143 238 239 240 241 242 237 -137 139 138 136 129 128 130 168 167 170 169 -146 147 209 236 118 120 119 116 117 132 133 131 245 -155 154 12 13 58 55 57 56 54 53 109 107 108 110 171 172 -160 158 156 157 76 75 74 183 185 184 186 -166 0 





OBJ=
2218.593
BEST_KNOWN=
0.000